AES/1_5_4/ssaes_r1-20_c5_rw1_e4_f0_k1-20_aes_min_box_aes_mc_bidirectional/ExperimentMinisat_r20_k16cnf_2011-10-29-200959/Result
WARNING: for repeatability, setting FPU to use double precision
============================[ Problem Statistics ]=============================
|                                                                             |
|  Number of variables:          1820                                         |
|  Number of clauses:            7520                                         |
|  Parse time:                   0.00 s                                       |
|  Eliminated clauses:           0.02 Mb                                      |
|  Simplification time:          0.01 s                                       |
|                                                                             |
=============================[ Search Statistics ]==============================
| Conflicts  |          ORIGINAL         |          LEARNT          | Progress |
|            |    Vars  Clauses Literals |    Limit  Clauses Lit/Cl |          |
================================================================================
|        100 |    1280     5800    19280 |     2126      100     10 |  6.593 % |
|        250 |    1280     5800    19280 |     2339      250     13 |  6.593 % |
|        475 |    1280     5800    19280 |     2573      475     15 |  6.593 % |
|        812 |    1280     5800    19280 |     2830      812     15 |  6.593 % |
|       1318 |    1280     5800    19280 |     3113     1318     17 |  6.593 % |
|       2077 |    1280     5800    19280 |     3425     2077     17 |  6.593 % |
|       3216 |    1280     5800    19280 |     3767     3216     18 |  6.593 % |
|       4924 |    1280     5800    19280 |     4144     2953     16 |  6.593 % |
|       7486 |    1280     5800    19280 |     4558     3370     17 |  6.593 % |
|      11330 |    1280     5800    19280 |     5014     2503     11 |  6.593 % |
|      17096 |    1280     5800    19280 |     5516     3070     13 |  6.593 % |
|      25745 |    1280     5800    19280 |     6067     3197     11 |  6.593 % |
|      38719 |    1280     5800    19280 |     6674     3720     11 |  6.593 % |
|      58180 |    1280     5800    19280 |     7341     6067     16 |  6.593 % |
|      87372 |    1280     5800    19280 |     8076     5194     13 |  6.593 % |
|     131161 |    1280     5800    19280 |     8883     7836     18 |  6.593 % |
|     196845 |    1280     5800    19280 |     9771     5621     14 |  6.593 % |
|     295371 |    1280     5800    19280 |    10749     9747     17 |  6.593 % |
|     443160 |    1280     5800    19280 |    11824    10219     17 |  6.593 % |
|     664843 |    1280     5800    19280 |    13006    10089     17 |  6.593 % |
|     997368 |    1280     5800    19280 |    14307     6841     15 |  6.593 % |
|    1496156 |    1280     5800    19280 |    15737    13700     19 |  6.593 % |
|    2244338 |    1280     5800    19280 |    17311    14469     16 |  6.593 % |
|    3366612 |    1280     5800    19280 |    19042     9692     15 |  6.593 % |
|    5050023 |    1280     5800    19280 |    20947    12919     16 |  6.593 % |
===============================================================================
restarts              : 8191
conflicts             : 5228465        (7419 /sec)
decisions             : 5822424        (0.00 % random) (8262 /sec)
propagations          : 2698646185     (3829437 /sec)
conflict literals     : 117016165      (57.52 % deleted)
Memory used           : 16.00 MB
CPU time              : 704.711 s

SATISFIABLE
